Traveling Salesman Problem/TSP_generados/Aleatorio1620391403_15.tsp
NAME: Aleatorio1620391403_15.tsp
COMMENT: Randomly generated scenario
TYPE: TSP
DIMENSION: 15
EDGE_WEIGHT_TYPE: ATT
NODE_COORD_SECTION
1 41.72 32.74
2 10.6 2.47
3 49.99 7.73
4 30.1 33.34
5 45.41 36.78
6 24.42 30.59
7 49.6 48.75
8 23.99 31.92
9 5.69 45.37
10 31.04 9.3
11 4.52 18.93
12 0.04 40.32
13 12.33 34.98
14 36.56 10.58
15 34.12 49.97
