Traveling Salesman Problem/TSP_generados/Aleatorio1620391403_15.opt.tour
NAME: Aleatorio1620391403_15.opt.tour
COMMENT: Optimal solution for Aleatorio1620391403_15 (197.15189400675183)
TYPE: TOUR
DIMENSION: 15
TOUR_SECTION
1 3 14 10 2 11 12 9 13 8 6 4 15 7 5
-1
EOF
